c --- [ banner ] -------------------------------------------------------------
c 
c CaDiCaL Radically Simplified CDCL SAT Solver
c Copyright (c) 2016-2021 A. Biere, M. Fleury, N. Froleyks
c 
c Version 1.5.2 a5f15211db36c3956764e18194dd5bd63bf3b5e6
c g++ (GCC) 9.3.0 -Wall -Wextra -O3 -DNDEBUG
c Fri Oct 21 01:27:37 EDT 2022 Linux gra-login3 3.10.0-1160.66.1.el7.x86_64 x86_64
c 
c --- [ limit ] --------------------------------------------------------------
c 
c setting conflict limit to 200000 conflicts (due to '200000')
c 
c --- [ parsing input ] ------------------------------------------------------
c 
c reading DIMACS file from '33.cubes2219.adj'
c opening file to read '33.cubes2219.adj'
c found 'p cnf 6160 1595475' header
c parsed 1595475 clauses in 19.41 seconds process time
c closing file '33.cubes2219.adj'
c after reading 1457566777 bytes 1390.0 MB
c 
c --- [ options ] ------------------------------------------------------------
c 
c all options are set to their default value
c 
c --- [ solving ] ------------------------------------------------------------
c 
c time measured in process time since initialization
c 
c  seconds    reductions  redundant   irredundant
c          MB     restarts       trail       variables
c            level   conflicts       glue         remaining
c 
c * 19.41 1379  0 0   0    0    0  0% 0 1595422 2480 40%
c { 20.64 1428  0 0   0    0    0  0% 0 1595422 2480 40%
c i 21.84 1476 1442 0   0   12    8 43% 1 1595422 2386 39%
c i 25.02 1521 488 0  14   88   81 31% 14 1595422 2365 38%
c i 25.44 1523 418 0  18  104   92 30% 17 1595422 2364 38%
c i 25.89 1528 362 0  23  123  110 30% 19 1595422 2363 38%
c i 26.06 1531 344 0  25  132  115 30% 21 1595422 2362 38%
c i 26.07 1532 340 0  25  134  115 30% 21 1595422 2352 38%
c i 26.50 1532 312 0  30  153  130 29% 22 1595422 2351 38%
c i 26.57 1532 311 0  31  155  131 29% 23 1595422 2350 38%
c i 27.17 1534 289 0  35  173  145 29% 22 1595422 2349 38%
c i 29.90 1543 225 0  60  276  232 28% 33 1595422 2348 38%
c i 30.02 1546 222 0  61  280  235 28% 33 1595422 2347 38%
c i 30.14 1546 216 0  63  292  245 28% 33 1595422 2346 38%
c - 34.16 1491 211 1  66  302  252 28% 33 401876 2346 38%
c i 34.57 1491 207 1  69  319  265 28% 34 401876 2345 38%
c i 34.67 1491 205 1  71  324  269 28% 34 401876 2344 38%
c i 34.83 1492 203 1  72  328  272 28% 34 401876 2343 38%
c i 35.13 1492 194 1  79  358  296 28% 34 401876 2342 38%
c i 36.38 1493 180 1  96  431  361 28% 38 401876 2341 38%
c 
c  seconds     reductions  redundant   irredundant
c          MB      restarts       trail       variables
c             level   conflicts       glue         remaining
c 
c i 36.90 1494 170 1 101  470  389 28% 38 401876 2340 38%
c i 37.54 1494 165 1 111  515  419 28% 39 401876 2339 38%
c i 38.00 1494 155 1 120  570  466 28% 39 401876 2338 38%
c i 38.11 1494 151 1 120  592  481 28% 38 401876 2337 38%
c i 38.17 1494 150 1 120  595  483 28% 38 401876 2336 38%
c i 38.19 1494 149 1 120  600  487 28% 38 401876 2335 38%
c i 38.27 1495 147 1 120  608  494 28% 38 401876 2334 38%
c i 38.78 1495 146 1 120  646  530 28% 38 401876 2333 38%
c i 38.94 1495 145 1 123  663  544 28% 38 401876 2332 38%
c i 38.98 1495 143 1 123  674  553 28% 38 401876 2331 38%
c i 38.99 1495 143 1 123  676  554 28% 38 401876 2330 38%
c i 39.14 1495 141 1 123  695  565 28% 38 401876 2329 38%
c i 39.50 1495 139 1 123  731  595 28% 37 401876 2328 38%
c i 39.67 1495 137 1 124  776  634 28% 37 401876 2327 38%
c i 39.77 1495 133 1 124  810  658 28% 37 401876 2326 38%
c i 40.56 1495 128 1 127  883  722 28% 37 401876 2325 38%
c i 40.58 1495 128 1 127  885  723 28% 37 401876 2324 38%
c i 40.71 1495 128 1 127  899  735 28% 37 401876 2323 38%
c i 40.84 1495 128 1 127  915  748 28% 37 401876 2322 38%
c i 40.89 1495 127 1 128  918  750 28% 37 401876 2321 38%
c 
c  seconds     reductions  redundant   irredundant
c          MB      restarts       trail       variables
c             level   conflicts       glue         remaining
c 
c } 42.20 1496 125 1 145 1003  818 28% 39 401876 2321 38%
c [ 42.20 1496  0 1 145 1003  818  0% 0 401876 2321 38%
c O 42.23 1496  1 1 145 1004  819 17% 1 401876 2321 38%
c i 42.23 1496  1 1 145 1006  820 15% 1 401876 2294 37%
c i 42.71 1496 22 1 145 1117  893 29% 16 401876 2293 37%
c i 42.74 1496 22 1 145 1132  903 30% 16 401876 2292 37%
c i 42.91 1496 21 1 145 1196  937 31% 16 401876 2291 37%
c i 42.93 1496 21 1 145 1199  939 31% 16 401876 2290 37%
c i 42.93 1496 21 1 145 1200  939 31% 16 401876 2289 37%
c i 43.06 1496 21 1 145 1257  973 31% 17 401876 2288 37%
c - 43.96 1623 21 2 145 1264  866 31% 17 401311 2288 37%
c i 44.34 1623 21 2 145 1325  919 32% 17 401311 2287 37%
c i 44.34 1623 21 2 145 1326  919 32% 17 401311 2286 37%
c i 44.35 1623 21 2 145 1328  920 32% 17 401311 2285 37%
c i 44.41 1623 21 2 145 1351  938 32% 17 401311 2284 37%
c i 44.43 1623 21 2 145 1367  950 32% 17 401311 2283 37%
c i 44.70 1623 23 2 145 1543 1089 32% 19 401311 2282 37%
c i 45.15 1623 23 2 146 2046 1382 32% 20 401311 2281 37%
c i 45.34 1623 25 2 146 2222 1497 32% 21 401311 2280 37%
c i 45.37 1623 25 2 146 2246 1514 32% 21 401311 2279 37%
c 
c  seconds    reductions  redundant   irredundant
c          MB     restarts       trail       variables
c            level   conflicts       glue         remaining
c 
c i 45.73 1623 25 2 146 2638 1761 32% 22 401311 2278 37%
c - 46.28 1620 25 3 146 2713 1353 31% 22 401281 2278 37%
c ] 46.95 1619 25 3 146 2960 1511 51% 22 401281 2278 37%
c 1 46.95 1619 25 3 146 2960 1511 51% 22 401281 2278 37%
c 
c --- [ writing output ] -----------------------------------------------------
c 
c writing simplified CNF to DIMACS file 'simp/33.cubes2219.adj.simp1'
c * 46.95 1619 25 3 146 2960 1511 51% 22 401281 2278 37%
c opening file to write 'simp/33.cubes2219.adj.simp1'
c writing 'p cnf 6160 401281' header
c closing file 'simp/33.cubes2219.adj.simp1'
c after writing 197785367 bytes 188.6 MB
c wrote 401281 clauses in 1.41 seconds process time
c 
c --- [ writing extension ] --------------------------------------------------
c 
c writing extension stack to 'simp/33.cubes2219.adj.ext1'
c opening file to write 'simp/33.cubes2219.adj.ext1'
c closing file 'simp/33.cubes2219.adj.ext1'
c after writing 10906 bytes 0.0 MB
c wrote 738 witnesses in 0.00 seconds process time
c 
c --- [ result ] -------------------------------------------------------------
c 
s SATISFIABLE
c 
c --- [ run-time profiling ] -------------------------------------------------
c 
c process time taken by individual solving procedures
c (percentage relative to process time for solving)
c 
c        27.54  100.00% search
c        21.56   78.28% unstable
c        19.41   70.49% parse
c         4.75   17.25% stable
c         1.23    4.47% lucky
c         0.00    0.00% simplify
c   =================================
c        27.54   56.94% solve
c 
c last line shows process time for solving
c (percentage relative to total process time)
c 
c --- [ statistics ] ---------------------------------------------------------
c 
c chronological:               738        24.93 %  of conflicts
c conflicts:                  2960       107.49    per second
c decisions:                 21566       783.14    per second
c fixed:                       738        11.98 %  of all variables
c learned:                    2874        97.09 %  per conflict
c learned_lits:             541401       100.00 %  learned literals
c minimized:                     0         0.00 %  learned literals
c shrunken:                 325268        60.08 %  learned literals
c minishrunken:              38447         7.10 %  learned literals
c propagations:             486685         0.02 M  per second
c reduced:                     558        18.85 %  per conflict
c rephased:                      1      2960.00    interval
c restarts:                    146        20.27    interval
c stabilizing:                   1        66.11 %  of conflicts
c subsumed:                    746         0.02 %  of all clauses
c 
c seconds are measured in process time for solving
c 
c --- [ resources ] ----------------------------------------------------------
c 
c total process time since initialization:        48.36    seconds
c total real time since initialization:           48.50    seconds
c maximum resident set size of process:         1793.61    MB
c 
c --- [ shutting down ] ------------------------------------------------------
c 
c exit 10
WARNING! DIMACS header mismatch: wrong number of variables.
============================[ Problem Statistics ]=============================
|                                                                             |
|  Number of variables:          6120                                         |
|  Number of clauses:          401281                                         |
|  Parse time:                   2.67 s                                       |
|  Simplification time:          0.06 s                                       |
|                                                                             |
============================[ Search Statistics ]====================================================
| Conflicts |          ORIGINAL         |          LEARNT          | Num Sols |      SUBGRAPHS      |
|           |    Vars  Clauses Literals |    Limit  Clauses Lit/Cl |          | Canonical Noncanon. |
=====================================================================================================
|       102 |    6029   401283 42906249 |     2000      102    195 |        0 |        12         2 |
|       252 |    6027   401283 42906249 |     2000      250    144 |        0 |        23         2 |
|       719 |    6026   401525 42909935 |     2000      716     74 |        0 |       134       244 |
|      1794 |    6026   402263 42919632 |     2000     1791     38 |        0 |       339       982 |
|      4288 |    6026   404251 42949776 |     3599     3287     13 |        0 |       965      2970 |
|      5633 |    6021   404837 42958887 |     5001     2829     39 |        0 |      1101      3556 |
|     11386 |    6021   409451 43019833 |     6299     6085     13 |        0 |      2079      8170 |
|     15060 |    6016   411417 43048765 |     7561     6618     29 |        0 |      2462     10136 |
|     17786 |    6014   411581 43051701 |     8786     5571     48 |        0 |      2499     10300 |
|     26364 |    6012   416315 43110111 |     9997     9759     21 |        0 |      3260     15034 |
|     34388 |    6012   418573 43139414 |    12410     7198     24 |        0 |      3714     17292 |
|     43261 |    6012   418797 43143715 |    13619     9880     48 |        0 |      3758     17516 |
|     59080 |    6012   421642 43177214 |    16026    11506     36 |        0 |      4294     20361 |
|     79693 |    6012   422794 43190011 |    18414    15507     52 |        0 |      4509     21513 |
|    110146 |    6012   424055 43207471 |    22015    16561     43 |        0 |      4779     22774 |
|    154639 |    6007   424759 43217775 |    26809    13448     19 |        0 |      5007     23478 |
=====================================================================================================
Number of solutions   : 0
Canonical subgraphs   : 5129           (14 /sec)
          order  3    : 1              (142857 /sec)
          order  4    : 1              (500000 /sec)
          order  5    : 1              (250000 /sec)
          order  6    : 1              (55556 /sec)
          order  7    : 1              (8929 /sec)
          order  8    : 2              (1357 /sec)
          order  9    : 7              (352 /sec)
          order 10    : 27             (101 /sec)
          order 11    : 110            (31 /sec)
          order 12    : 580            (19 /sec)
          order 13    : 3073           (15 /sec)
          order 14    : 583            (23 /sec)
          order 15    : 209            (9 /sec)
          order 16    : 316            (7 /sec)
          order 17    : 196            (5 /sec)
          order 18    : 19             (4 /sec)
          order 19    : 1              (3 /sec)
          order 20    : 1              (3 /sec)
          order 21    : 0              (-nan /sec)
          order 22    : 0              (-nan /sec)
Noncanonical subgraphs: 23809          (805 /sec)
          order  3    : 0              (-nan /sec)
          order  4    : 0              (-nan /sec)
          order  5    : 0              (-nan /sec)
          order  6    : 0              (-nan /sec)
          order  7    : 0              (-nan /sec)
          order  8    : 0              (-nan /sec)
          order  9    : 0              (-nan /sec)
          order 10    : 0              (-nan /sec)
          order 11    : 0              (-nan /sec)
          order 12    : 0              (-nan /sec)
          order 13    : 5915           (7091 /sec)
          order 14    : 13718          (670 /sec)
          order 15    : 2045           (1349 /sec)
          order 16    : 1491           (567 /sec)
          order 17    : 587            (222 /sec)
          order 18    : 51             (39 /sec)
          order 19    : 2              (12 /sec)
          order 20    : 0              (-nan /sec)
          order 21    : 0              (-nan /sec)
Canonicity checking   : 379.623 s
Noncanonicity checking: 29.5738 s
Total canonicity time : 409.197 s
database reductions   : 22
restarts              : 510
conflicts             : 196021         (371 /sec)
decisions             : 307229         (0.00 % random) (582 /sec)
propagations          : 19169740       (36311 /sec)
conflict literals     : 16841662       (56.64 % deleted)
actual reward         : 0.123053
Memory used           : 585.00 MB
CPU time              : 527.93 s

UNSATISFIABLE
